param set_len = 52;
param target_sum = 14719134910;
param values := [1] 1054800554 [2] 30961054 [3] 57332472 [4] 137242519 [5] 203906169 [6] 634350128 [7] 414205810 [8] 71592968 [9] 533961357 [10] 710350548 [11] 490271606 [12] 1054617205 [13] 1069683842 [14] 791810404 [15] 671012267 [16] 195511901 [17] 922600079 [18] 687061635 [19] 694152716 [20] 979551256 [21] 605505939 [22] 281711082 [23] 61411777 [24] 903639434 [25] 988780896 [26] 914639807 [27] 923821047 [28] 134545159 [29] 790913062 [30] 787623780 [31] 127227609 [32] 878910849 [33] 351162881 [34] 156762702 [35] 506013402 [36] 692033693 [37] 1019475849 [38] 62689251 [39] 889024014 [40] 836318450 [41] 306409864 [42] 938763102 [43] 777894969 [44] 85695593 [45] 64029349 [46] 4263768 [47] 1068699951 [48] 940068788 [49] 1039535674 [50] 181990578 [51] 121045781 [52] 614620551 ;
